language ESSENCE' 1.0

letting jobs = 102
letting horizon = 776
letting resourcesRenew = 2
letting resourcesNonrenew = 2
letting resourceLimits = [41, 49, 167, 135]
letting successors = [[2, 3, 4, 5, 6, 7, 8, 9, 10, 11, 12, 13, 14, 15, 16, 17, 18, 19, 20, 21, 22, 23, 24, 25, 27, 28, 30, 32, 38, 39, 40, 43, 51, 61], [99, 98, 95, 92, 90, 87, 64, 59, 58, 55, 52, 48, 45, 41, 36, 34, 33, 29], [101, 97, 95, 92, 66, 65, 60, 58, 57, 56, 50, 45, 44, 35, 26], [100, 99, 95, 94, 93, 92, 87, 82, 76, 67, 66, 64, 60, 57, 55, 52, 50, 47, 44, 42, 41, 34], [101, 92, 83, 67, 66, 65, 64, 57, 53, 49, 47, 44, 42, 36, 26], [101, 99, 96, 95, 94, 93, 92, 90, 88, 87, 85, 82, 76, 66, 65, 63, 62, 60, 59, 58, 57, 56, 50, 44, 35, 34], [98, 96, 95, 93, 92, 91, 87, 86, 83, 80, 76, 66, 64, 63, 59, 57, 56, 53, 50, 48, 46, 44], [98, 94, 93, 92, 91, 90, 88, 87, 85, 84, 65, 64, 63, 49, 48, 36, 31], [101, 100, 99, 98, 96, 93, 91, 87, 86, 85, 82, 80, 64, 58, 57, 52, 50, 49, 47, 46, 44], [101, 97, 96, 95, 93, 90, 88, 87, 85, 82, 76, 66, 65, 63, 57, 53, 50, 47, 44, 35, 34], [100, 95, 92, 89, 87, 85, 84, 82, 81, 79, 76, 59, 58, 57, 55, 49, 48, 46, 41, 34], [99, 92, 89, 84, 66, 59, 57, 53, 41, 36, 26], [99, 97, 96, 95, 92, 91, 90, 87, 76, 73, 63, 57, 55, 47, 45, 42, 35], [100, 94, 93, 92, 90, 89, 88, 87, 86, 85, 81, 80, 78, 65, 64, 63, 60, 58, 57, 53, 52, 48], [96, 93, 92, 90, 89, 88, 87, 85, 84, 83, 82, 81, 80, 78, 76, 73, 70, 66, 65, 64, 63, 62, 58, 53, 50], [93, 90, 87, 85, 82, 76, 66, 63, 62, 57, 50, 35, 34], [99, 97, 95, 94, 91, 90, 88, 87, 86, 83, 82, 79, 78, 77, 76, 75, 67, 65, 64, 62, 58, 44], [100, 94, 92, 91, 90, 87, 86, 76, 73, 67, 65, 59, 58, 56, 50, 48, 44], [94, 93, 88, 87, 85, 84, 83, 82, 79, 76, 66, 65, 59, 56, 48, 34], [95, 93, 90, 87, 83, 82, 65, 64, 63, 62, 57, 53, 44, 34], [100, 94, 93, 89, 86, 81, 80, 74, 58, 57, 54, 52, 47, 41], [98, 95, 91, 88, 85, 82, 81, 80, 79, 78, 76, 66, 65, 63, 58, 57, 49, 48], [99, 94, 89, 87, 85, 82, 81, 76, 67, 65, 64, 58, 57, 53, 34], [95, 93, 87, 84, 81, 80, 79, 74, 66, 57, 41, 37], [99, 95, 94, 93, 88, 87, 86, 82, 80, 77, 75, 63, 60, 58, 57, 44], [98, 96, 94, 93, 90, 88, 87, 85, 82, 81, 76, 63, 62, 34], [99, 98, 94, 93, 89, 83, 79, 76, 75, 72, 64, 57, 45, 42], [100, 98, 92, 91, 90, 87, 82, 80, 79, 78, 76, 73, 70, 69, 66, 62, 53], [89, 85, 84, 83, 82, 81, 80, 79, 78, 76, 75, 73, 70, 69, 65, 63, 53], [101, 98, 95, 93, 87, 85, 84, 76, 73, 69, 53, 48], [101, 97, 95, 86, 83, 81, 80, 79, 76, 75, 74, 73, 69, 62, 59, 57], [92, 87, 84, 82, 80, 77, 75, 70, 62, 42], [96, 83, 80, 78, 76, 75, 71, 69, 49], [91, 86, 80, 78, 77, 75, 74, 73, 72, 71, 70, 69, 68], [89, 86, 84, 83, 81, 79, 77, 74, 70, 69, 68, 64], [96, 86, 82, 79, 78, 77, 76, 75, 73, 72, 70, 62], [92, 85, 83, 82, 76, 75, 73, 70, 62, 58], [90, 85, 76, 74, 69, 68, 47], [100, 99, 92, 90, 78, 76, 73, 71, 70, 63], [100, 95, 94, 81, 79, 76, 75, 73, 69], [83, 73, 72, 71, 69, 63, 62], [88, 85, 78, 74, 68, 58], [96, 82, 76, 75, 69, 57], [89, 84, 81, 74, 72, 69, 68], [88, 82, 81, 80, 70, 69, 68], [97, 94, 90, 88, 78, 73, 69], [79, 77, 75, 72, 71, 70], [77, 75, 71, 70, 62], [74, 73, 72, 70, 62], [79, 77, 71, 69, 68], [85, 76, 73, 71, 69], [97, 84, 79, 62], [74, 72, 71, 68], [92, 76, 73, 68], [86, 70, 62], [78, 72, 71], [70, 68], [71, 69], [72, 68], [83, 73], [82, 76], [68], [68], [71], [72], [77], [70], [102], [102], [102], [102], [102], [102], [102], [102], [102], [102], [102], [102], [102], [102], [102], [102], [102], [102], [102], [102], [102], [102], [102], [102], [102], [102], [102], [102], [102], [102], [102], [102], [102], [102], []]
letting durations = [[0], [2, 10, 10], [3, 4, 6], [3, 8, 10], [2, 5, 6], [2, 3, 4], [2, 7, 10], [5, 7, 8], [1, 6, 9], [2, 9, 10], [2, 5, 10], [1, 2, 6], [3, 5, 10], [5, 6, 8], [2, 5, 8], [2, 4, 10], [2, 7, 9], [5, 9, 10], [1, 1, 2], [2, 5, 7], [6, 8, 10], [2, 5, 10], [5, 7, 9], [7, 8, 10], [1, 4, 5], [1, 4, 6], [2, 4, 4], [2, 4, 8], [3, 5, 6], [2, 3, 5], [9, 10, 10], [1, 5, 6], [8, 9, 10], [5, 6, 9], [2, 2, 6], [1, 2, 4], [5, 6, 7], [1, 4, 7], [6, 6, 8], [3, 7, 10], [8, 9, 10], [8, 9, 10], [7, 8, 9], [1, 1, 3], [1, 2, 3], [5, 7, 8], [6, 7, 10], [4, 5, 7], [2, 5, 8], [6, 7, 10], [3, 7, 10], [1, 3, 6], [1, 3, 7], [5, 9, 10], [5, 7, 10], [7, 7, 10], [2, 9, 9], [1, 6, 10], [2, 4, 5], [2, 3, 4], [3, 5, 9], [4, 5, 10], [7, 7, 8], [1, 3, 9], [4, 4, 7], [3, 6, 8], [3, 5, 7], [1, 2, 5], [1, 5, 8], [3, 9, 10], [4, 7, 9], [8, 8, 10], [6, 6, 9], [2, 3, 6], [1, 3, 6], [2, 3, 9], [2, 2, 3], [2, 9, 10], [2, 4, 5], [1, 8, 10], [2, 5, 6], [1, 4, 5], [1, 8, 8], [3, 4, 9], [3, 4, 8], [3, 5, 9], [1, 2, 8], [2, 7, 8], [2, 7, 9], [2, 3, 5], [1, 1, 9], [2, 3, 9], [3, 9, 10], [2, 6, 9], [1, 5, 6], [2, 4, 5], [1, 2, 3], [1, 2, 7], [3, 7, 9], [4, 7, 9], [2, 3, 5], [0]]
letting resourceUsage = [[[0, 0, 0, 0]], [[0, 9, 0, 7], [0, 4, 3, 0], [4, 0, 1, 0]], [[0, 5, 0, 5], [0, 4, 3, 0], [2, 0, 0, 5]], [[0, 9, 9, 0], [0, 6, 9, 0], [3, 0, 0, 3]], [[0, 9, 0, 8], [6, 0, 4, 0], [6, 0, 3, 0]], [[0, 4, 2, 0], [5, 0, 2, 0], [4, 0, 0, 1]], [[0, 3, 8, 0], [0, 1, 3, 0], [0, 1, 1, 0]], [[0, 7, 0, 6], [4, 0, 0, 5], [0, 6, 0, 5]], [[0, 9, 0, 5], [0, 8, 0, 4], [4, 0, 5, 0]], [[2, 0, 8, 0], [2, 0, 5, 0], [0, 1, 3, 0]], [[0, 7, 0, 8], [0, 7, 0, 6], [0, 7, 0, 5]], [[0, 7, 9, 0], [0, 5, 7, 0], [0, 4, 6, 0]], [[3, 0, 7, 0], [2, 0, 6, 0], [0, 2, 0, 2]], [[8, 0, 3, 0], [7, 0, 0, 6], [6, 0, 2, 0]], [[8, 0, 0, 8], [8, 0, 0, 6], [7, 0, 0, 6]], [[0, 8, 2, 0], [4, 0, 2, 0], [0, 8, 0, 1]], [[10, 0, 0, 8], [0, 3, 1, 0], [2, 0, 0, 8]], [[0, 4, 6, 0], [6, 0, 0, 5], [0, 1, 0, 5]], [[0, 3, 6, 0], [1, 0, 5, 0], [1, 0, 4, 0]], [[6, 0, 0, 9], [0, 3, 0, 6], [4, 0, 1, 0]], [[7, 0, 7, 0], [6, 0, 6, 0], [0, 4, 6, 0]], [[2, 0, 5, 0], [0, 2, 2, 0], [0, 2, 1, 0]], [[2, 0, 0, 7], [0, 5, 7, 0], [0, 2, 0, 2]], [[0, 7, 6, 0], [7, 0, 4, 0], [0, 4, 4, 0]], [[7, 0, 8, 0], [0, 2, 7, 0], [0, 2, 5, 0]], [[0, 6, 0, 8], [0, 4, 5, 0], [0, 4, 4, 0]], [[0, 7, 0, 7], [0, 6, 8, 0], [0, 6, 0, 3]], [[5, 0, 10, 0], [5, 0, 0, 2], [5, 0, 9, 0]], [[4, 0, 2, 0], [3, 0, 3, 0], [3, 0, 2, 0]], [[0, 10, 0, 5], [0, 8, 0, 5], [2, 0, 0, 1]], [[8, 0, 8, 0], [0, 3, 5, 0], [0, 3, 0, 6]], [[0, 7, 0, 4], [0, 6, 4, 0], [0, 3, 0, 1]], [[0, 8, 8, 0], [0, 8, 0, 7], [6, 0, 5, 0]], [[0, 9, 0, 9], [0, 8, 0, 5], [10, 0, 0, 5]], [[6, 0, 0, 8], [0, 6, 3, 0], [0, 4, 0, 7]], [[0, 3, 7, 0], [3, 0, 0, 3], [2, 0, 0, 2]], [[0, 5, 6, 0], [4, 0, 5, 0], [3, 0, 0, 2]], [[0, 4, 6, 0], [0, 4, 5, 0], [6, 0, 0, 3]], [[5, 0, 8, 0], [0, 8, 0, 7], [0, 8, 2, 0]], [[9, 0, 6, 0], [7, 0, 0, 8], [5, 0, 2, 0]], [[7, 0, 0, 6], [4, 0, 8, 0], [0, 6, 0, 5]], [[0, 6, 0, 6], [0, 5, 0, 6], [0, 5, 0, 5]], [[0, 6, 7, 0], [0, 6, 5, 0], [0, 3, 0, 1]], [[7, 0, 0, 9], [0, 6, 0, 7], [4, 0, 0, 4]], [[6, 0, 0, 4], [4, 0, 4, 0], [0, 1, 0, 3]], [[6, 0, 5, 0], [0, 3, 0, 3], [0, 3, 2, 0]], [[0, 9, 3, 0], [0, 7, 2, 0], [0, 6, 2, 0]], [[0, 8, 7, 0], [6, 0, 0, 2], [6, 0, 3, 0]], [[0, 3, 5, 0], [9, 0, 5, 0], [0, 1, 3, 0]], [[6, 0, 4, 0], [0, 5, 3, 0], [3, 0, 2, 0]], [[0, 5, 0, 10], [0, 5, 0, 9], [0, 5, 1, 0]], [[10, 0, 0, 4], [9, 0, 6, 0], [7, 0, 0, 2]], [[0, 8, 1, 0], [4, 0, 1, 0], [0, 8, 0, 5]], [[8, 0, 0, 6], [0, 1, 7, 0], [0, 1, 5, 0]], [[5, 0, 0, 9], [5, 0, 5, 0], [5, 0, 0, 6]], [[8, 0, 0, 6], [0, 8, 0, 5], [0, 8, 3, 0]], [[0, 2, 8, 0], [1, 0, 8, 0], [0, 2, 0, 2]], [[6, 0, 7, 0], [0, 5, 5, 0], [0, 5, 4, 0]], [[0, 3, 2, 0], [5, 0, 1, 0], [5, 0, 0, 4]], [[2, 0, 10, 0], [0, 8, 0, 2], [0, 8, 0, 1]], [[8, 0, 1, 0], [7, 0, 0, 6], [0, 8, 0, 4]], [[9, 0, 0, 9], [0, 9, 0, 6], [0, 9, 1, 0]], [[0, 8, 0, 3], [1, 0, 0, 3], [1, 0, 0, 2]], [[0, 9, 0, 8], [6, 0, 0, 8], [0, 5, 2, 0]], [[9, 0, 0, 4], [0, 7, 0, 4], [0, 4, 1, 0]], [[0, 10, 0, 4], [0, 9, 6, 0], [0, 8, 1, 0]], [[0, 8, 0, 7], [0, 5, 5, 0], [0, 4, 5, 0]], [[0, 4, 9, 0], [6, 0, 4, 0], [0, 2, 1, 0]], [[2, 0, 9, 0], [0, 7, 8, 0], [0, 4, 0, 5]], [[9, 0, 0, 5], [6, 0, 8, 0], [0, 2, 8, 0]], [[9, 0, 9, 0], [8, 0, 6, 0], [7, 0, 0, 1]], [[8, 0, 4, 0], [0, 4, 0, 9], [0, 4, 2, 0]], [[0, 8, 0, 6], [0, 5, 4, 0], [7, 0, 1, 0]], [[0, 4, 6, 0], [0, 3, 6, 0], [7, 0, 3, 0]], [[10, 0, 0, 4], [0, 7, 5, 0], [2, 0, 4, 0]], [[0, 5, 0, 2], [6, 0, 9, 0], [0, 3, 9, 0]], [[5, 0, 0, 6], [0, 5, 4, 0], [0, 3, 3, 0]], [[9, 0, 0, 9], [0, 8, 4, 0], [0, 8, 3, 0]], [[7, 0, 0, 3], [6, 0, 0, 1], [0, 3, 0, 1]], [[6, 0, 0, 5], [3, 0, 6, 0], [0, 8, 0, 3]], [[8, 0, 0, 8], [0, 6, 0, 3], [7, 0, 0, 2]], [[0, 8, 6, 0], [0, 6, 5, 0], [0, 3, 4, 0]], [[0, 9, 9, 0], [5, 0, 7, 0], [0, 7, 0, 2]], [[3, 0, 6, 0], [0, 7, 0, 3], [0, 7, 2, 0]], [[8, 0, 10, 0], [5, 0, 7, 0], [0, 4, 0, 2]], [[3, 0, 7, 0], [0, 5, 5, 0], [1, 0, 5, 0]], [[10, 0, 0, 5], [9, 0, 0, 4], [0, 4, 2, 0]], [[0, 2, 7, 0], [0, 2, 6, 0], [0, 2, 3, 0]], [[0, 6, 0, 9], [0, 5, 7, 0], [2, 0, 0, 3]], [[0, 7, 9, 0], [4, 0, 6, 0], [0, 5, 4, 0]], [[3, 0, 6, 0], [0, 6, 5, 0], [0, 5, 0, 7]], [[0, 3, 6, 0], [9, 0, 6, 0], [0, 1, 0, 3]], [[0, 10, 2, 0], [5, 0, 1, 0], [0, 8, 0, 6]], [[0, 4, 10, 0], [0, 3, 0, 5], [3, 0, 0, 1]], [[0, 9, 0, 7], [8, 0, 0, 5], [0, 2, 0, 1]], [[0, 7, 3, 0], [6, 0, 3, 0], [6, 0, 1, 0]], [[2, 0, 0, 5], [0, 6, 3, 0], [0, 5, 2, 0]], [[0, 6, 5, 0], [0, 6, 0, 3], [0, 6, 3, 0]], [[0, 8, 9, 0], [5, 0, 0, 4], [4, 0, 0, 3]], [[0, 8, 5, 0], [5, 0, 3, 0], [4, 0, 0, 2]], [[10, 0, 0, 6], [0, 6, 0, 5], [7, 0, 0, 4]], [[0, 0, 0, 0]]]
